words_hard_train/2843.qaiger
aag 73 16 0 1 57
2
4
12
14
18
22
26
30
34
48
56
78
86
92
98
108
146
6 2 5
8 3 4
10 7 9
16 13 15
20 16 19
24 20 23
28 24 27
32 28 31
36 32 35
38 10 37
40 11 36
42 39 41
44 29 30
46 45 33
50 46 49
52 33 34
54 53 37
58 54 57
60 55 56
62 59 61
64 51 62
66 65 61
68 43 67
70 42 66
72 69 71
74 21 22
76 75 25
80 77 78
82 25 26
84 83 29
88 85 86
90 81 89
94 92 14
96 95 17
100 99 13
102 92 15
104 100 103
106 97 105
110 107 109
112 17 18
114 113 21
116 111 115
118 106 108
120 117 119
122 76 79
124 121 123
126 90 125
128 84 87
130 127 129
132 65 130
134 64 131
136 47 48
138 134 137
140 133 139
142 63 137
144 141 143
146 73 145
i0 1 x1[7]
i1 2 y2[7]
i2 2 y2[0]
i3 2 y2[1]
i4 2 y2[2]
i5 2 y2[3]
i6 2 y2[4]
i7 2 y2[5]
i8 2 y2[6]
i9 1 x1[5]
i10 1 x1[6]
i11 1 x1[3]
i12 1 x1[4]
i13 1 x1[1]
i14 1 x1[0]
i15 1 x1[2]
o0 bv[0]
c
simplified
  <=
    subtract
      1 x1
      subtract
        1
        2 y2
    invert
      -224
