words_hard_train/2843.qaiger.qdimacs
p cnf 73 172
a 1 39 43 46 49 54 24 28 0
e 2 3 4 5 6 7 8 9 10 11 12 13 14 15 16 17 18 19 20 21 22 23 25 26 27 29 30 31 32 33 34 35 36 37 38 40 41 42 44 45 47 48 50 51 52 53 55 56 57 58 59 60 61 62 63 64 65 66 67 68 69 70 71 72 73 0
-1 2 3 0
1 -3 0
-2 -3 0
1 -2 4 0
-1 -4 0
2 -4 0
3 4 5 0
-3 -5 0
-4 -5 0
6 7 8 0
-6 -8 0
-7 -8 0
-8 9 10 0
8 -10 0
-9 -10 0
-10 11 12 0
10 -12 0
-11 -12 0
-12 13 14 0
12 -14 0
-13 -14 0
-14 15 16 0
14 -16 0
-15 -16 0
-16 17 18 0
16 -18 0
-17 -18 0
-5 18 19 0
5 -19 0
-18 -19 0
5 -18 20 0
-5 -20 0
18 -20 0
19 20 21 0
-19 -21 0
-20 -21 0
14 -15 22 0
-14 -22 0
15 -22 0
22 16 23 0
-22 -23 0
-16 -23 0
-23 24 25 0
23 -25 0
-24 -25 0
16 -17 26 0
-16 -26 0
17 -26 0
26 18 27 0
-26 -27 0
-18 -27 0
-27 28 29 0
27 -29 0
-28 -29 0
27 -28 30 0
-27 -30 0
28 -30 0
29 30 31 0
-29 -31 0
-30 -31 0
25 -31 32 0
-25 -32 0
31 -32 0
32 30 33 0
-32 -33 0
-30 -33 0
21 33 34 0
-21 -34 0
-33 -34 0
-21 -33 35 0
21 -35 0
33 -35 0
34 35 36 0
-34 -36 0
-35 -36 0
10 -11 37 0
-10 -37 0
11 -37 0
37 12 38 0
-37 -38 0
-12 -38 0
38 -39 40 0
-38 -40 0
39 -40 0
12 -13 41 0
-12 -41 0
13 -41 0
41 14 42 0
-41 -42 0
-14 -42 0
42 -43 44 0
-42 -44 0
43 -44 0
40 44 45 0
-40 -45 0
-44 -45 0
-46 -7 47 0
46 -47 0
7 -47 0
47 8 48 0
-47 -48 0
-8 -48 0
49 6 50 0
-49 -50 0
-6 -50 0
-46 7 51 0
46 -51 0
-7 -51 0
-50 51 52 0
50 -52 0
-51 -52 0
48 52 53 0
-48 -53 0
-52 -53 0
53 54 55 0
-53 -55 0
-54 -55 0
8 -9 56 0
-8 -56 0
9 -56 0
56 10 57 0
-56 -57 0
-10 -57 0
55 57 58 0
-55 -58 0
-57 -58 0
-53 -54 59 0
53 -59 0
54 -59 0
58 59 60 0
-58 -60 0
-59 -60 0
-38 39 61 0
38 -61 0
-39 -61 0
60 61 62 0
-60 -62 0
-61 -62 0
-45 62 63 0
45 -63 0
-62 -63 0
-42 43 64 0
42 -64 0
-43 -64 0
63 64 65 0
-63 -65 0
-64 -65 0
32 -65 66 0
-32 -66 0
65 -66 0
-32 65 67 0
32 -67 0
-65 -67 0
23 -24 68 0
-23 -68 0
24 -68 0
-67 68 69 0
67 -69 0
-68 -69 0
66 69 70 0
-66 -70 0
-69 -70 0
31 68 71 0
-31 -71 0
-68 -71 0
70 71 72 0
-70 -72 0
-71 -72 0
36 72 73 0
-36 -73 0
-72 -73 0
73 0
